unknown
(model
; cardinality of BoundSet is 2
(declare-sort BoundSet 0)
; rep: @uc_BoundSet_0
; rep: @uc_BoundSet_1
; cardinality of UnboundSet is 1
(declare-sort UnboundSet 0)
(declare-fun groundTerm_3 () UnboundSet)
(define-fun IsAbout ((BOUND_VARIABLE_405 BoundSet) (BOUND_VARIABLE_406 BoundSet)) Bool true)
(define-fun IsOverdone ((BOUND_VARIABLE_409 BoundSet)) Bool true)
(define-fun IsNotUnusual ((BOUND_VARIABLE_409 BoundSet)) Bool false)
(define-fun IsNotAProblem ((BOUND_VARIABLE_409 BoundSet)) Bool false)
)
sat
(model
; cardinality of BoundSet is 1
(declare-sort BoundSet 0)
; rep: @uc_BoundSet_0
; cardinality of UnboundSet is 1
(declare-sort UnboundSet 0)
(declare-fun groundTerm_6 () UnboundSet)
(define-fun IsAbout ((BOUND_VARIABLE_447 BoundSet) (BOUND_VARIABLE_448 BoundSet)) Bool true)
(define-fun IsOverdone ((BOUND_VARIABLE_451 BoundSet)) Bool true)
(define-fun IsNotUnusual ((BOUND_VARIABLE_451 BoundSet)) Bool false)
(define-fun IsNotAProblem ((BOUND_VARIABLE_451 BoundSet)) Bool false)
)
